\ This file has been generated by DOcplex
\ ENCODING=ISO-8859-1
\Problem name: random_problem.lp

Minimize
 obj: - 132 x0 - 66 x1 - 33 x2 + 80 x3 + 40 x4 + 20 x5 + 560 x6 + 280 x7
      + 140 x8 + 180 x9 + 90 x10 + 45 x11 - 156 x12 - 78 x13 - 39 x14 + [
      1184 x0^2 + 1184 x0*x1 + 592 x0*x2 + 640 x0*x3 + 320 x0*x4 + 160 x0*x5
      + 448 x0*x6 + 224 x0*x7 + 112 x0*x8 + 1216 x0*x9 + 608 x0*x10 + 304 x0*x11
      + 1344 x0*x12 + 672 x0*x13 + 336 x0*x14 + 296 x1^2 + 296 x1*x2 + 320 x1*x3
      + 160 x1*x4 + 80 x1*x5 + 224 x1*x6 + 112 x1*x7 + 56 x1*x8 + 608 x1*x9
      + 304 x1*x10 + 152 x1*x11 + 672 x1*x12 + 336 x1*x13 + 168 x1*x14 + 74 x2^2
      + 160 x2*x3 + 80 x2*x4 + 40 x2*x5 + 112 x2*x6 + 56 x2*x7 + 28 x2*x8
      + 304 x2*x9 + 152 x2*x10 + 76 x2*x11 + 336 x2*x12 + 168 x2*x13 + 84 x2*x14
      + 3936 x3^2 + 3936 x3*x4 + 1968 x3*x5 + 4608 x3*x6 + 2304 x3*x7
      + 1152 x3*x8 + 4288 x3*x9 + 2144 x3*x10 + 1072 x3*x11 + 3456 x3*x12
      + 1728 x3*x13 + 864 x3*x14 + 984 x4^2 + 984 x4*x5 + 2304 x4*x6
      + 1152 x4*x7 + 576 x4*x8 + 2144 x4*x9 + 1072 x4*x10 + 536 x4*x11
      + 1728 x4*x12 + 864 x4*x13 + 432 x4*x14 + 246 x5^2 + 1152 x5*x6
      + 576 x5*x7 + 288 x5*x8 + 1072 x5*x9 + 536 x5*x10 + 268 x5*x11
      + 864 x5*x12 + 432 x5*x13 + 216 x5*x14 + 2144 x6^2 + 2144 x6*x7
      + 1072 x6*x8 + 2624 x6*x9 + 1312 x6*x10 + 656 x6*x11 + 2048 x6*x12
      + 1024 x6*x13 + 512 x6*x14 + 536 x7^2 + 536 x7*x8 + 1312 x7*x9
      + 656 x7*x10 + 328 x7*x11 + 1024 x7*x12 + 512 x7*x13 + 256 x7*x14
      + 134 x8^2 + 656 x8*x9 + 328 x8*x10 + 164 x8*x11 + 512 x8*x12 + 256 x8*x13
      + 128 x8*x14 + 1792 x9^2 + 1792 x9*x10 + 896 x9*x11 + 2176 x9*x12
      + 1088 x9*x13 + 544 x9*x14 + 448 x10^2 + 448 x10*x11 + 1088 x10*x12
      + 544 x10*x13 + 272 x10*x14 + 112 x11^2 + 544 x11*x12 + 272 x11*x13
      + 136 x11*x14 + 1728 x12^2 + 1728 x12*x13 + 864 x12*x14 + 432 x13^2
      + 432 x13*x14 + 108 x14^2 ]/2
Subject To
 c0: 4 x0 + 2 x1 + x2 + 4 x3 + 2 x4 + x5 + 4 x6 + 2 x7 + x8 + 4 x9 + 2 x10 + x11
     + 4 x12 + 2 x13 + x14 = 7

Bounds
 0 <= x0 <= 1
 0 <= x1 <= 1
 0 <= x2 <= 1
 0 <= x3 <= 1
 0 <= x4 <= 1
 0 <= x5 <= 1
 0 <= x6 <= 1
 0 <= x7 <= 1
 0 <= x8 <= 1
 0 <= x9 <= 1
 0 <= x10 <= 1
 0 <= x11 <= 1
 0 <= x12 <= 1
 0 <= x13 <= 1
 0 <= x14 <= 1

Binaries
 x0 x1 x2 x3 x4 x5 x6 x7 x8 x9 x10 x11 x12 x13 x14
End
